
GUB cover cuts applied:  5
Clique cuts applied:  5
Cover cuts applied:  22
Implied bound cuts applied:  134
Flow cuts applied:  1
Mixed integer rounding cuts applied:  37
Zero-half cuts applied:  32
Gomory fractional cuts applied:  1

Root node processing (before b&c):
  Real time             =    0.20 sec. (163.07 ticks)
Parallel b&c, 4 threads:
  Real time             =    0.17 sec. (180.07 ticks)
  Sync time (average)   =    0.01 sec.
  Wait time (average)   =    0.00 sec.
                          ------------
Total (root+branch&cut) =    0.37 sec. (343.14 ticks)
Version identifier: 12.10.0.0 | 2019-11-26 | 843d4de
CPXPARAM_MIP_Interval                            10
CPXPARAM_MIP_Tolerances_AbsMIPGap                0.98999999999999999
Tried aggregator 2 times.
MIP Presolve eliminated 3176 rows and 1520 columns.
MIP Presolve added 4 rows and 0 columns.
MIP Presolve modified 132 coefficients.
Aggregator did 11 substitutions.
Reduced MIP has 1531 rows, 188 columns, and 3464 nonzeros.
Reduced MIP has 149 binaries, 39 generals, 0 SOSs, and 0 indicators.
Presolve time = 0.00 sec. (5.65 ticks)
Probing fixed 0 vars, tightened 9 bounds.
Probing time = 0.00 sec. (0.68 ticks)
Cover probing fixed 0 vars, tightened 28 bounds.
Tried aggregator 1 time.
Detecting symmetries...
MIP Presolve eliminated 1174 rows and 0 columns.
MIP Presolve modified 9 coefficients.
Reduced MIP has 357 rows, 188 columns, and 1116 nonzeros.
Reduced MIP has 149 binaries, 39 generals, 0 SOSs, and 0 indicators.
Presolve time = 0.00 sec. (1.26 ticks)
Probing fixed 0 vars, tightened 7 bounds.
Probing time = 0.00 sec. (0.23 ticks)
Cover probing fixed 0 vars, tightened 26 bounds.
Clique table members: 243.
MIP emphasis: balance optimality and feasibility.
MIP search method: dynamic search.
Parallel mode: deterministic, using up to 4 threads.
Root relaxation solution time = 0.00 sec. (2.38 ticks)

        Nodes                                         Cuts/
   Node  Left     Objective  IInf  Best Integer    Best Bound    ItCnt     Gap

      0     0       25.4167    74                     25.4167      199         
      0     0       25.4167    74                    Cuts: 58      288         
      0     0       25.3995    74                    Cuts: 38      385         
      0     0       25.3600    74                    Cuts: 58      433         
      0     0       25.2886    74                    Cuts: 51      491         
      0     0       25.2268    74                    Cuts: 83      614         
Detecting symmetries...
      0     0       25.1966    74                    Cuts: 54      707         
      0     0       25.1749    74                    Cuts: 65      776         
      0     0       25.1637    74                    Cuts: 56      871         
      0     0       25.1538    74                    Cuts: 54      956         
      0     0       25.1496    74                    Cuts: 54      997         
      0     0       25.1226    74                    Cuts: 32     1038         
      0     0       25.1104    74                    Cuts: 47     1107         
*     0+    0                           21.0000       25.1104            19.57%
      0     0       25.1035    74       21.0000      Cuts: 51     1185   19.54%
      0     0       25.0989    74       21.0000      Cuts: 62     1256   19.52%
      0     0       25.0769    74       21.0000      Cuts: 41     1304   19.41%
      0     0       25.0769    74       21.0000      Cuts: 48     1383   19.41%
Detecting symmetries...
      0     2       25.0769   109       21.0000       25.0769     1383   19.41%
Elapsed time = 0.19 sec. (133.98 ticks, tree = 0.02 MB, solutions = 1)
     10    10       23.8939   120       21.0000       25.0769     2104   19.41%
     20    13       22.0705   100       21.0000       25.0614     2245   19.34%
     30    13       25.0238   137       21.0000       25.0614     2519   19.34%
     40    32       22.0000    18       21.0000       25.0614     3563   19.34%
     50    41       24.1389    74       21.0000       25.0614     4695   19.34%
     60    40       24.6222   118       21.0000       25.0614     4436   19.34%
     70    49       23.1389    64       21.0000       25.0606     5090   19.34%
     80    52       24.6864   125       21.0000       25.0606     5738   19.34%
     90    49       24.2500    66       21.0000       25.0606     5527   19.34%
    100    76       22.0000    46       21.0000       24.9682     6828   18.90%
Elapsed time = 0.24 sec. (173.06 ticks, tree = 0.07 MB, solutions = 1)
    110    78       22.0000    11       21.0000       24.9682     6874   18.90%
    120    78       24.7526   107       21.0000       24.9682     6996   18.90%
    130    86       24.0000    19       21.0000       24.9167     7939   18.65%
    140    99       23.1111    63       21.0000       24.9167     8437   18.65%
    150   105       22.6667    72       21.0000       24.9167     8933   18.65%
    160   113    infeasible             21.0000       24.9167     9213   18.65%
    170   108       22.0000    52       21.0000       24.9167     9028   18.65%
    180   132       24.1319   103       21.0000       24.8750    10552   18.45%
    190   127       24.0128    89       21.0000       24.8333    10210   18.25%
    200   137        cutoff             21.0000       24.8333    11258   18.25%
Elapsed time = 0.26 sec. (199.03 ticks, tree = 0.11 MB, solutions = 1)
    210   131       23.0000    92       21.0000       24.8333    10351   18.25%
    220   142    infeasible             21.0000       24.7708    10982   17.96%
    230   144       24.3972    94       21.0000       24.7708    11070   17.96%
    240   158       23.8333    60       21.0000       24.7708    12028   17.96%
    250   160       22.3333    44       21.0000       24.7708    12076   17.96%
    260   174       23.0000    63       21.0000       24.7648    12671   17.93%
    270   162       24.5123   123       21.0000       24.7648    12176   17.93%
    280   180       22.0000    25       21.0000       24.7648    12761   17.93%
    290   175       23.9000   104       21.0000       24.7648    12450   17.93%
    300   193       22.0000    52       21.0000       24.7648    13001   17.93%
Elapsed time = 0.29 sec. (219.08 ticks, tree = 0.31 MB, solutions = 1)
    310   180       22.8333    52       21.0000       24.6864    12531   17.55%
    320   212        cutoff             21.0000       24.6500    13680   17.38%
    330   229       24.0230    52       21.0000       24.6500    14052   17.38%
    340   231       23.3333    13       21.0000       24.6500    14124   17.38%
    350   214        cutoff             21.0000       24.6500    13879   17.38%
    360   234       22.0000    13       21.0000       24.6500    14187   17.38%
    370   216       24.3743   118       21.0000       24.6500    13974   17.38%
    380   208       23.5000    22       21.0000       24.6500    13778   17.38%
    390   221       22.6667    48       21.0000       24.6250    14127   17.26%
    400   222        cutoff             21.0000       24.6250    14168   17.26%
Elapsed time = 0.30 sec. (239.09 ticks, tree = 0.39 MB, solutions = 1)
    410   238        cutoff             21.0000       24.6250    14450   17.26%
    420   261        cutoff             21.0000       24.6181    15182   17.23%
    430   271       23.5625   109       21.0000       24.6181    15581   17.23%
    440   264       23.8646    94       21.0000       24.6030    15363   17.16%
    450   275       22.8333    85       21.0000       24.6030    15719   17.16%
    460   268       22.4167    45       21.0000       24.6030    15498   17.16%
    470   303       24.2409    97       21.0000       24.6010    16895   17.15%
    480   307       23.8438    73       21.0000       24.6010    16983   17.15%
    490   312       22.5000    72       21.0000       24.6010    17078   17.15%
    500   313        cutoff             21.0000       24.5724    17175   17.01%
Elapsed time = 0.33 sec. (262.06 ticks, tree = 0.56 MB, solutions = 1)
    510   319       23.3462    76       21.0000       24.5724    17772   17.01%
    520   317       24.4000   106       21.0000       24.5230    17469   16.78%
    530   319       24.0446    83       21.0000       24.5230    17576   16.78%
    540   345       22.2807    14       21.0000       24.5230    18947   16.78%
    550   346       22.6667    93       21.0000       24.5068    19014   16.70%
    560   364       23.0000    13       21.0000       24.5068    19611   16.70%
    570   334       22.1190    77       21.0000       24.5068    18640   16.70%
    580   328       24.3889   131       21.0000       24.5068    18233   16.70%
    590   368       24.1062    72       21.0000       24.5000    19763   16.67%
    600   373       23.4259   107       21.0000       24.5000    20381   16.67%
Elapsed time = 0.36 sec. (290.36 ticks, tree = 0.70 MB, solutions = 1)
    610   371       23.2500    24       21.0000       24.5000    19919   16.67%
    620   375       22.3452    96       21.0000       24.5000    20507   16.67%
    630   371       24.1523    88       21.0000       24.5000    20046   16.67%
    640   384       23.1765   112       21.0000       24.4433    21078   16.40%
    650   388       22.7000    63       21.0000       24.4433    21110   16.40%
    660   392       22.0000    52       21.0000       24.4433    21147   16.40%
    670   397       22.2024    51       21.0000       24.4433    21912   16.40%
    680   413       24.2951   107       21.0000       24.4306    22231   16.34%
    690   417       23.8889    72       21.0000       24.4306    22285   16.34%
    700   443        cutoff             21.0000       24.4235    23128   16.30%
Elapsed time = 0.38 sec. (313.74 ticks, tree = 0.99 MB, solutions = 1)
    710   423       22.5000    84       21.0000       24.4121    22371   16.25%
    720   424        cutoff             21.0000       24.4121    22480   16.25%
    730   428       23.6111    81       21.0000       24.4121    23038   16.25%
    740   468       23.2222    32       21.0000       24.4037    24361   16.21%
    750   433       22.5000    69       21.0000       24.4037    23215   16.21%
    760   435       22.5000    19       21.0000       24.4037    23267   16.21%
    770   470       22.1250    62       21.0000       24.4037    24623   16.21%
*   775+  408                           23.0000       24.4037             6.10%
    780   455       22.1667    40       23.0000       24.4037    23765    6.10%
    790   473       23.9696   121       23.0000       24.4011    24782    6.09%
    800   476       23.0862   121       23.0000       24.4000    24903    6.09%
Elapsed time = 0.41 sec. (340.02 ticks, tree = 1.03 MB, solutions = 2)
    810    85        cutoff             23.0000       24.4000    26703    6.09%
    820   489       22.0000     7       23.0000       24.4000    25018    6.09%
    830   489    infeasible             23.0000       24.4000    25036    6.09%
    840    74        cutoff             23.0000       24.3594    27136    5.91%
    850    71       24.0000    62       23.0000       24.3594    27209    5.91%
    860    76        cutoff             23.0000       24.3594    27033    5.91%
    870    42        cutoff             23.0000       24.3594    28381    5.91%
    880    52        cutoff             23.0000       24.3594    28144    5.91%
    890    50        cutoff             23.0000       24.2500    28170    5.43%
    900    16        cutoff             23.0000       24.1950    29540    5.20%
Elapsed time = 0.43 sec. (363.51 ticks, tree = 0.04 MB, solutions = 2)
    910    31        cutoff             23.0000       24.1950    29283    5.20%
the number of Nodes = 911
